experiments/sat_smt/run/sat-r+/results/jack_jill.res
solved=true
solvingTime=57.3003692626953125
nActions=16