experiments/sat_smt/run/sat-r+/results/jack_jill.out
Timesteps: 1
s UNSATISFIABLE
real 0.25
user 0.02
sys 0.00
Timesteps: 2
s UNSATISFIABLE
real 0.14
user 0.04
sys 0.00
Timesteps: 3
s UNSATISFIABLE
real 0.13
user 0.06
sys 0.01
Timesteps: 4
s UNSATISFIABLE
real 0.31
user 0.10
sys 0.01
Timesteps: 5
s UNSATISFIABLE
real 0.29
user 0.12
sys 0.01
Timesteps: 6
s UNSATISFIABLE
real 0.38
user 0.24
sys 0.01
Timesteps: 7
s UNSATISFIABLE
real 0.62
user 0.46
sys 0.01
Timesteps: 8
s UNSATISFIABLE
real 0.67
user 0.47
sys 0.01
Timesteps: 9
s UNSATISFIABLE
real 0.94
user 0.72
sys 0.01
Timesteps: 10
s UNSATISFIABLE
real 1.07
user 0.84
sys 0.02
Timesteps: 11
s UNSATISFIABLE
real 1.67
user 1.37
sys 0.01
Timesteps: 12
s UNSATISFIABLE
real 1.67
user 1.40
sys 0.02
Timesteps: 13
s UNSATISFIABLE
real 7.87
user 7.16
sys 0.04
Timesteps: 14
s UNSATISFIABLE
real 9.96
user 9.14
sys 0.03
Timesteps: 15
s UNSATISFIABLE
real 17.22
user 16.28
sys 0.05
Timesteps: 16
s SATISFIABLE
real 15.35
user 14.40
sys 0.04
